\ Model Ore Mixing Problem
\ LP format - for model browsing. Use MPS format to capture full model detail.
Minimize
  65.10416666666667 a_max_00 + 25.70033410434336 a_max_01
   + 1234.567901234568 a_max_10 + 1639.344262295082 a_max_11
   + 4000 a_max_20 + 3125 a_max_21 + 3703.703703703703 a_max_30
   + 3448.275862068965 a_max_31 + 1282.051282051282 a_max_40
   + 1219.512195121951 a_max_41 + 5882.352941176473 a_max_50
   + 757.5757575757577 a_max_51 + 33.73819163292848 a_min_00
   + 164.2036124794745 a_min_01 + 1449.275362318841 a_min_10
   + 1123.595505617978 a_min_11 + 4000 a_min_20
   + 5555.555555555556 a_min_21 + 4347.826086956521 a_min_30
   + 4761.904761904761 a_min_31 + 4545.454545454546 a_min_40
   + 5555.555555555556 a_min_41 + 751.8796992481202 a_min_50
   + 5555.555555555551 a_min_51 + 0.0651041666666667 b_min_00
   + 0.1642036124794745 b_min_01 + 1.449275362318841 b_min_10
   + 1.639344262295082 b_min_11 + 4 b_min_20 + 5.555555555555555 b_min_21
   + 4.347826086956522 b_min_30 + 4.761904761904762 b_min_31
   + 4.545454545454546 b_min_40 + 5.555555555555555 b_min_41
   + 5.882352941176473 b_min_50 + 5.555555555555551 b_min_51
   + 0.0651041666666667 b_max_00 + 0.1642036124794745 b_max_01
   + 1.449275362318841 b_max_10 + 1.639344262295082 b_max_11 + 4 b_max_20
   + 5.555555555555555 b_max_21 + 4.347826086956522 b_max_30
   + 4.761904761904762 b_max_31 + 4.545454545454546 b_max_40
   + 5.555555555555555 b_max_41 + 5.882352941176473 b_max_50
   + 5.555555555555551 b_max_51
Subject To
 demand_constr_0: x_00 + x_10 + x_20 + x_30 + x_40 + x_50 = 1048.9
 capacity_constr_00: x_00 <= 559.7
 capacity_constr_10: x_10 <= 510.4
 capacity_constr_20: x_20 <= 612.3
 capacity_constr_30: x_30 <= 541.2
 capacity_constr_40: x_40 <= 637.2
 capacity_constr_50: x_50 <= 538
 min_quality_constr_00: 9.97 x_00 + 44.8 x_10 + 29.58 x_20 + 32.22 x_30
   + 21.16 x_40 + 6.63 x_50 + 1048.9 a_min_00 >= -0
 max_quality_constr_00: - 35.03 x_00 - 0.2 x_10 - 15.42 x_20 - 12.78 x_30
   - 23.84 x_40 - 38.37 x_50 - 1048.9 a_max_00 <= -0
 goal_quality_constr_00: - 19.67 x_00 + 15.16 x_10 - 0.06 x_20 + 2.58 x_30
   - 8.48 x_40 - 23.01 x_50 + b_min_00 - b_max_00 = -0
 min_quality_constr_10: 1.03 x_00 + 1.41 x_10 + 0.74 x_20 + 0.11 x_30
   + 0.13 x_40 + 1.1 x_50 + 1048.9 a_min_10 >= -0
 max_quality_constr_10: - 0.47 x_00 - 0.09 x_10 - 0.76 x_20 - 1.39 x_30
   - 1.37 x_40 - 0.4 x_50 - 1048.9 a_max_10 <= -0
 goal_quality_constr_10: 0.34 x_00 + 0.72 x_10 + 0.05 x_20 - 0.58 x_30
   - 0.56 x_40 + 0.41 x_50 + b_min_10 - b_max_10 = -0
 min_quality_constr_20: 5.44 x_00 + 3.43 x_10 + 3.9 x_20 + 0.22 x_30
   + 5.47 x_40 + 3.79 x_50 + 1048.9 a_min_20 >= -0
 max_quality_constr_20: 4.94 x_00 + 2.93 x_10 + 3.4 x_20 - 0.28 x_30
   + 4.97 x_40 + 3.29 x_50 - 1048.9 a_max_20 <= -0
 goal_quality_constr_20: 5.19 x_00 + 3.18 x_10 + 3.65 x_20 - 0.03 x_30
   + 5.22 x_40 + 3.54 x_50 + b_min_20 - b_max_20 = -0
 min_quality_constr_30: 1.84 x_00 + 1.42 x_10 + 0.46 x_20 + 5.46 x_30
   + 5.14 x_40 + 4.71 x_50 + 1048.9 a_min_30 >= -0
 max_quality_constr_30: 1.34 x_00 + 0.92 x_10 - 0.04 x_20 + 4.96 x_30
   + 4.64 x_40 + 4.21 x_50 - 1048.9 a_max_30 <= -0
 goal_quality_constr_30: 1.61 x_00 + 1.19 x_10 + 0.23 x_20 + 5.23 x_30
   + 4.91 x_40 + 4.48 x_50 + b_min_30 - b_max_30 = -0
 min_quality_constr_40: 1.18 x_00 + 0.82 x_10 + 0.27 x_20 + 0.09 x_30
   + 0.14 x_40 + 0.37 x_50 + 1048.9 a_min_40 >= -0
 max_quality_constr_40: 0.18 x_00 - 0.18 x_10 - 0.73 x_20 - 0.91 x_30
   - 0.86 x_40 - 0.63 x_50 - 1048.9 a_max_40 <= -0
 goal_quality_constr_40: 0.96 x_00 + 0.6 x_10 + 0.05 x_20 - 0.13 x_30
   - 0.08 x_40 + 0.15 x_50 + b_min_40 - b_max_40 = -0
 min_quality_constr_50: 1.54 x_00 + 0.4 x_10 + 2.01 x_20 + 0.33 x_30
   + 2.44 x_40 + 2.44 x_50 + 1048.9 a_min_50 >= -0
 max_quality_constr_50: 0.04 x_00 - 1.1 x_10 + 0.51 x_20 - 1.17 x_30
   + 0.94 x_40 + 0.94 x_50 - 1048.9 a_max_50 <= -0
 goal_quality_constr_50: 0.21 x_00 - 0.93 x_10 + 0.68 x_20 - x_30
   + 1.11 x_40 + 1.11 x_50 + b_min_50 - b_max_50 = -0
 demand_constr_1: x_01 + x_11 + x_21 + x_31 + x_41 + x_51 = 1022.9
 capacity_constr_01: x_01 <= 559.7
 capacity_constr_11: x_11 <= 510.4
 capacity_constr_21: x_21 <= 612.3
 capacity_constr_31: x_31 <= 541.2
 capacity_constr_41: x_41 <= 637.2
 capacity_constr_51: x_51 <= 538
 min_quality_constr_01: 9.97 x_01 + 44.8 x_11 + 29.58 x_21 + 32.22 x_31
   + 21.16 x_41 + 6.63 x_51 + 1022.9 a_min_01 >= -0
 max_quality_constr_01: - 35.03 x_01 - 0.2 x_11 - 15.42 x_21 - 12.78 x_31
   - 23.84 x_41 - 38.37 x_51 - 1022.9 a_max_01 <= -0
 goal_quality_constr_01: 3.88 x_01 + 38.71 x_11 + 23.49 x_21 + 26.13 x_31
   + 15.07 x_41 + 0.54 x_51 + b_min_01 - b_max_01 = -0
 min_quality_constr_11: 1.03 x_01 + 1.41 x_11 + 0.74 x_21 + 0.11 x_31
   + 0.13 x_41 + 1.1 x_51 + 1022.9 a_min_11 >= -0
 max_quality_constr_11: - 0.47 x_01 - 0.09 x_11 - 0.76 x_21 - 1.39 x_31
   - 1.37 x_41 - 0.4 x_51 - 1022.9 a_max_11 <= -0
 goal_quality_constr_11: 0.14 x_01 + 0.52 x_11 - 0.15 x_21 - 0.78 x_31
   - 0.76 x_41 + 0.21 x_51 + b_min_11 - b_max_11 = -0
 min_quality_constr_21: 5.44 x_01 + 3.43 x_11 + 3.9 x_21 + 0.22 x_31
   + 5.47 x_41 + 3.79 x_51 + 1022.9 a_min_21 >= -0
 max_quality_constr_21: 4.94 x_01 + 2.93 x_11 + 3.4 x_21 - 0.28 x_31
   + 4.97 x_41 + 3.29 x_51 - 1022.9 a_max_21 <= -0
 goal_quality_constr_21: 5.26 x_01 + 3.25 x_11 + 3.72 x_21 + 0.04 x_31
   + 5.29 x_41 + 3.61 x_51 + b_min_21 - b_max_21 = -0
 min_quality_constr_31: 1.84 x_01 + 1.42 x_11 + 0.46 x_21 + 5.46 x_31
   + 5.14 x_41 + 4.71 x_51 + 1022.9 a_min_31 >= -0
 max_quality_constr_31: 1.34 x_01 + 0.92 x_11 - 0.04 x_21 + 4.96 x_31
   + 4.64 x_41 + 4.21 x_51 - 1022.9 a_max_31 <= -0
 goal_quality_constr_31: 1.63 x_01 + 1.21 x_11 + 0.25 x_21 + 5.25 x_31
   + 4.93 x_41 + 4.5 x_51 + b_min_31 - b_max_31 = -0
 min_quality_constr_41: 1.18 x_01 + 0.82 x_11 + 0.27 x_21 + 0.09 x_31
   + 0.14 x_41 + 0.37 x_51 + 1022.9 a_min_41 >= -0
 max_quality_constr_41: 0.18 x_01 - 0.18 x_11 - 0.73 x_21 - 0.91 x_31
   - 0.86 x_41 - 0.63 x_51 - 1022.9 a_max_41 <= -0
 goal_quality_constr_41: x_01 + 0.64 x_11 + 0.09 x_21 - 0.09 x_31
   - 0.04 x_41 + 0.19 x_51 + b_min_41 - b_max_41 = -0
 min_quality_constr_51: 1.54 x_01 + 0.4 x_11 + 2.01 x_21 + 0.33 x_31
   + 2.44 x_41 + 2.44 x_51 + 1022.9 a_min_51 >= -0
 max_quality_constr_51: 0.04 x_01 - 1.1 x_11 + 0.51 x_21 - 1.17 x_31
   + 0.94 x_41 + 0.94 x_51 - 1022.9 a_max_51 <= -0
 goal_quality_constr_51: 1.36 x_01 + 0.22 x_11 + 1.83 x_21 + 0.15 x_31
   + 2.26 x_41 + 2.26 x_51 + b_min_51 - b_max_51 = -0
Bounds
End
